1641209400
1641224640
1641295380
1641310260
1641381960
1641396660
1641468120
1641486120
1641554820
1641569400
1641814020
1641830214
1641900180
1641915000
1641986880
1642001400
1642073220
1642087800
1642159560
1642174200
1642418760
1642429746
1642429740
1642433460
1642504860
1642519800
1642591080
1642606200
1642678013
1642692960
1643110200
1643124900
1643196600
1643211000
1643283960
1643299320
1643299320
1643299680
